
Welcome to IBM(R) ILOG(R) CPLEX(R) Interactive Optimizer 12.7.1.0
  with Simplex, Mixed Integer & Barrier Optimizers
5725-A06 5725-A29 5724-Y48 5724-Y49 5724-Y54 5724-Y55 5655-Y21
Copyright IBM Corp. 1988, 2017.  All Rights Reserved.

Type 'help' for a list of available commands.
Type 'help' followed by a command name for more
information on commands.

CPLEX> Name of file to read: Selected objective sense:  MINIMIZE
Selected objective  name:  OBJ
Selected RHS        name:  rhs
Selected bound      name:  bnd
Problem 'mip.mps' read.
Read time = 0.07 sec. (0.37 ticks)
CPLEX> 
Available Parameters:

advance          set indicator for advanced starting information
barrier          set parameters for barrier optimization
benders          set parameters for benders optimization
clocktype        set type of clock used to measure time
conflict         set parameters for finding conflicts
cpumask          set cpubinding mask (off, auto, or a hex mask)
defaults         set all parameter values to defaults
dettimelimit     set deterministic time limit in ticks
distmip          set distributed parallel mixed integer optimization
emphasis         set optimization emphasis
feasopt          set parameters for feasopt
logfile          set file to which results are printed
lpmethod         set method for linear optimization
mip              set parameters for mixed integer optimization
network          set parameters for network optimizations
optimalitytarget set type of solution CPLEX will attempt to compute
output           set extent and destinations of outputs
parallel         set parallel optimization mode
preprocessing    set parameters for preprocessing
qpmethod         set method for quadratic optimization
randomseed       set seed to initialize the random number generator
read             set problem read parameters
sifting          set parameters for sifting optimization
simplex          set parameters for primal and dual simplex optimizations
solutiontype     set solution information CPLEX will attempt to compute
threads          set default parallel thread count
timelimit        set time limit in seconds
tune             set parameters for parameter tuning
workdir          set directory for CPLEX working files
workmem          set memory available for working storage (in megabytes)

Parameter to set: Present value for default parallel thread count: 0 (default is 0)
  0 = automatic
  1 = sequential
 >1 = parallel
New value for default parallel thread count: New value for default parallel thread count: 1
CPLEX> CPXPARAM_Threads                                 1
CPXPARAM_Read_APIEncoding                        "UTF-8"
Tried aggregator 1 time.
MIP Presolve eliminated 789 rows and 88 columns.
Reduced MIP has 1153 rows, 1443 columns, and 3543 nonzeros.
Reduced MIP has 700 binaries, 0 generals, 0 SOSs, and 0 indicators.
Presolve time = 0.00 sec. (1.82 ticks)
Found incumbent of value 370.704304 after 0.01 sec. (4.11 ticks)
Probing fixed 0 vars, tightened 1 bounds.
Probing time = 0.00 sec. (0.35 ticks)
Tried aggregator 1 time.
Reduced MIP has 1153 rows, 1443 columns, and 3543 nonzeros.
Reduced MIP has 700 binaries, 0 generals, 0 SOSs, and 0 indicators.
Presolve time = 0.00 sec. (2.09 ticks)
Probing time = 0.00 sec. (0.35 ticks)
Clique table members: 350.
MIP emphasis: balance optimality and feasibility.
MIP search method: dynamic search.
Parallel mode: none, using 1 thread.
Root relaxation solution time = 0.01 sec. (2.82 ticks)

        Nodes                                         Cuts/
   Node  Left     Objective  IInf  Best Integer    Best Bound    ItCnt     Gap

*     0+    0                          370.7043       97.1718            73.79%
      0     0      115.1099    38      370.7043      115.1099      203   68.95%
*     0+    0                          126.3550      115.1099             8.90%
*     0+    0                          119.2420      115.1099             3.47%
      0     0      116.3469    64      119.2420      Cuts: 60      262    2.43%
      0     0      117.2863    58      119.2420      Cuts: 52      326    1.64%
      0     0      117.9541    55      119.2420      Cuts: 31      364    1.08%
      0     0      118.1131    65      119.2420      Cuts: 37      401    0.95%
      0     0      118.1673    57      119.2420      Cuts: 23      422    0.90%
      0     0      118.2436    55      119.2420      Cuts: 10      439    0.84%
      0     0      118.2494    50      119.2420      Cuts: 11      453    0.83%
      0     0      118.3560    50      119.2420      Cuts: 11      473    0.74%
      0     0      118.3627    53      119.2420       Cuts: 7      484    0.74%
*     0+    0                          118.9638      118.3627             0.51%
*     0+    0                          118.7744      118.3627             0.35%
      0     2      118.3627    53      118.7744      118.3628      484    0.35%
Elapsed time = 0.18 sec. (140.96 ticks, tree = 0.01 MB, solutions = 5)
*    37    12      integral     0      118.5763      118.4115      929    0.14%
*    83    36      integral     0      118.5620      118.4260     1198    0.11%

Flow cuts applied:  56
Mixed integer rounding cuts applied:  33
Gomory fractional cuts applied:  14

Root node processing (before b&c):
  Real time             =    0.18 sec. (141.02 ticks)
Sequential b&c:
  Real time             =    0.12 sec. (116.47 ticks)
                          ------------
Total (root+branch&cut) =    0.30 sec. (257.49 ticks)

Solution pool: 7 solutions saved.

MIP - Integer optimal, tolerance (0.0001/1e-06):  Objective =  1.1856200130e+02
Current MIP best bound =  1.1855332772e+02 (gap = 0.00867359, 0.01%)
Solution time =    0.33 sec.  Iterations = 1338  Nodes = 117 (5)
Deterministic time = 257.50 ticks  (785.72 ticks/sec)

CPLEX> Name of file to write: Incumbent solution written to file 'soln.sol'.
CPLEX> 